language ESSENCE' 1.0
$ loaded file: carseqdata/csplib-instance-79
letting numcars=200
letting numclasses=26
letting numoptions=5
letting optMax=[1, 2, 1, 2, 1]
letting windowSize=[2, 3, 3, 5, 5]
letting numberPerClass=[5, 16, 10, 8, 1, 15, 3, 8, 5, 1, 5, 9, 2, 25, 9, 28, 1, 3, 1, 2, 11, 4, 4, 11, 5, 8]
letting optionsRequired=[[0, 1, 0, 0, 1], [0, 1, 0, 1, 0], [0, 1, 1, 0, 0], [0, 0, 1, 0, 0], [1, 1, 1, 1, 0], [1, 0, 0, 0, 0], [0, 0, 0, 1, 1], [0, 1, 1, 1, 0], [1, 0, 1, 0, 0], [1, 0, 1, 1, 1], [0, 0, 1, 1, 0], [1, 1, 0, 1, 0], [0, 0, 1, 0, 1], [1, 1, 0, 0, 0], [1, 1, 1, 0, 0], [0, 1, 0, 0, 0], [0, 0, 1, 1, 1], [0, 1, 0, 1, 1], [0, 1, 1, 1, 1], [0, 1, 1, 0, 1], [0, 0, 0, 0, 1], [1, 1, 0, 0, 1], [1, 0, 0, 0, 0], [0, 0, 0, 1, 0], [1, 0, 1, 0, 0], [1, 0, 0, 0, 0]]
